6226
9947
8995
6621
9664
2551
6052
1264
9069
4604
9239
7358
3256
4928
6382
3153
1150
4484
4528
3373
2004
7977
4914
7200
4283
7902
2445
5907
7456
8616
3708
7045
3645
6336
3640
7876
5206
6873
1324
7414
7976
9767
7062
3302
3278
9612
5460
4955
1259
9409
